Na3 Co3 O6
1.0
        2.8813691139         0.0000000000         0.0000000000
       -1.4406845570         2.4953388503         0.0000000000
        0.0000000000         0.0000000000        15.4399652481
   Na   Co    O
    3    3    6
Direct
     0.00000000000  	0.00000000000  	0.50000000000  
     0.66666667000  	0.33333333000  	0.83333333000  
     0.33333333000  	0.66666667000  	0.16666667000  
     0.66666667000  	0.33333333000  	0.33333333000  
     0.33333333000  	0.66666667000  	0.66666667000  
     0.00000000000  	0.00000000000  	0.00000000000  
     0.33333333000  	0.66666667000  	0.39725961000  
     0.00000000000  	0.00000000000  	0.26940706000  
     0.00000000000  	0.00000000000  	0.73059294000  
     0.66666667000  	0.33333333000  	0.60274039000  
     0.66666667000  	0.33333333000  	0.06392627000  
     0.33333333000  	0.66666667000  	0.93607373000  

