Co Na O
1.0
  5.762738227800   0.000000000000   0.000000000000
 -2.881369114000   4.990677700600   0.000000000000
  0.000000000000   0.000000000000  15.439965248100
Co Na O
 12  12  24
Selective dynamics
Direct
  0.333333335000   0.166666665000   0.333333330000  T T T
  0.166666665000   0.333333335000   0.666666670000  T T T
  0.000000000000   0.000000000000   0.000000000000  T T T
  0.333333335000   0.666666665000   0.333333330000  T T T
  0.166666665000   0.833333335000   0.666666670000  T T T
  0.000000000000   0.500000000000   0.000000000000  T T T
  0.833333335000   0.166666665000   0.333333330000  T T T
  0.666666665000   0.333333335000   0.666666670000  T T T
  0.500000000000   0.000000000000   0.000000000000  T T T
  0.833333335000   0.666666665000   0.333333330000  T T T
  0.666666665000   0.833333335000   0.666666670000  T T T
  0.500000000000   0.500000000000   0.000000000000  T T T
  0.000000000000   0.000000000000   0.500000000000  T T T
  0.333333335000   0.166666665000   0.833333330000  T T T
  0.166666665000   0.333333335000   0.166666670000  T T T
  0.000000000000   0.500000000000   0.500000000000  T T T
  0.333333335000   0.666666665000   0.833333330000  T T T
  0.166666665000   0.833333335000   0.166666670000  T T T
  0.500000000000   0.000000000000   0.500000000000  T T T
  0.833333335000   0.166666665000   0.833333330000  T T T
  0.666666665000   0.333333335000   0.166666670000  T T T
  0.500000000000   0.500000000000   0.500000000000  T T T
  0.833333335000   0.666666665000   0.833333330000  T T T
  0.666666665000   0.833333335000   0.166666670000  T T T
  0.166666665000   0.333333335000   0.397259610000  T T T
  0.000000000000   0.000000000000   0.269407060000  T T T
  0.000000000000   0.000000000000   0.730592940000  T T T
  0.333333335000   0.166666665000   0.602740390000  T T T
  0.333333335000   0.166666665000   0.063926270000  T T T
  0.166666665000   0.333333335000   0.936073730000  T T T
  0.166666665000   0.833333335000   0.397259610000  T T T
  0.000000000000   0.500000000000   0.269407060000  T T T
  0.000000000000   0.500000000000   0.730592940000  T T T
  0.333333335000   0.666666665000   0.602740390000  T T T
  0.333333335000   0.666666665000   0.063926270000  T T T
  0.166666665000   0.833333335000   0.936073730000  T T T
  0.666666665000   0.333333335000   0.397259610000  T T T
  0.500000000000   0.000000000000   0.269407060000  T T T
  0.500000000000   0.000000000000   0.730592940000  T T T
  0.833333335000   0.166666665000   0.602740390000  T T T
  0.833333335000   0.166666665000   0.063926270000  T T T
  0.666666665000   0.333333335000   0.936073730000  T T T
  0.666666665000   0.833333335000   0.397259610000  T T T
  0.500000000000   0.500000000000   0.269407060000  T T T
  0.500000000000   0.500000000000   0.730592940000  T T T
  0.833333335000   0.666666665000   0.602740390000  T T T
  0.833333335000   0.666666665000   0.063926270000  T T T
  0.666666665000   0.833333335000   0.936073730000  T T T
